n_res = 4;
rc = [ 28, 40, 43, 39 ];
n_tasks = 30;
d = [ 3, 5, 9, 10, 1, 7, 2, 10, 9, 10, 5, 2, 5, 7, 7, 7, 9, 10, 6, 6, 9, 9, 6, 9, 10, 4, 10, 2, 10, 6 ];
rr = [| 28, 28, 28, 28, 28, 28, 28, 28, 28, 28, 28, 28, 28, 28, 28, 28, 28, 28, 28, 28, 28, 28, 28, 28, 28, 28, 28, 28, 28, 28
      | 40, 40, 40, 40, 40, 40, 40, 40, 40, 40, 40, 40, 40, 40, 40, 40, 40, 40, 40, 40, 40, 40, 40, 40, 40, 40, 40, 40, 40, 40
      | 43, 43, 43, 43, 43, 43, 43, 43, 43, 43, 43, 43, 43, 43, 43, 43, 43, 43, 43, 43, 43, 43, 43, 43, 43, 43, 43, 43, 43, 43
      | 39, 39, 39, 39, 39, 39, 39, 39, 39, 39, 39, 39, 39, 39, 39, 39, 39, 39, 39, 39, 39, 39, 39, 39, 39, 39, 39, 39, 39, 39|];
suc = [ { 16, 24, 28 },
       { 8, 9, 15 },
       { 4, 5, 6 },
       { 16 },
       { 12, 15, 21 },
       { 7 },
       { 11 },
       { 10, 14, 18 },
       { 22, 23 },
       { 24 },
       { 30 },
       { 13, 26 },
       { 19 },
       { 20 },
       { 19, 25 },
       { 17, 25 },
       { 23 },
       { 28 },
       { 24 },
       { 21 },
       { 22, 23 },
       { 30 },
       { 27 },
       { 29 },
       { 26 },
       { 27 },
       { 29 },
       {  },
       {  },
       {  } ];
